
Starting CP-SAT solver v9.14.6206
Parameters: max_time_in_seconds: 600 log_search_progress: true relative_gap_limit: 0
Setting number of workers to 20

Initial optimization model '': (model_fingerprint: 0xc72ab7b83706d028)
#Variables: 580 (#ints: 86 in objective) (494 primary variables)
  - 86 in [0,18123]
  - 74 in [1440,18123]
  - 420 in [2880,18123]
#kInterval: 248 (#fixed: 1)
#kLinMax: 86 (#expressions: 172)
#kLinear1: 32
#kLinear2: 215
#kNoOverlap: 10 (#intervals: 248, #fixed_intervals: 1)

Starting presolve at 0.00s
  1.70e-04s  0.00e+00d  [DetectDominanceRelations] 
  5.52e-03s  0.00e+00d  [operations_research::sat::CpModelPresolver::PresolveToFixPoint] #num_loops=10 #num_dual_strengthening=1 
  9.00e-06s  0.00e+00d  [operations_research::sat::CpModelPresolver::ExtractEncodingFromLinear] 
  3.91e-05s  0.00e+00d  [operations_research::sat::CpModelPresolver::DetectDuplicateColumns] 
  1.63e-04s  0.00e+00d  [operations_research::sat::CpModelPresolver::DetectDuplicateConstraints] 
[Symmetry] Graph for symmetry has 1'384 nodes and 1'339 arcs.
[Symmetry] Symmetry computation done. time: 0.0002273 dtime: 0.00022006
  1.67e-04s  0.00e+00d  [operations_research::sat::CpModelPresolver::DetectDuplicateConstraintsWithDifferentEnforcements] 
  1.29e-03s  2.31e-06d  [operations_research::sat::CpModelPresolver::Probe] 
  8.10e-06s  0.00e+00d  [MaxClique] 
  1.51e-04s  0.00e+00d  [DetectDominanceRelations] 
  9.27e-04s  0.00e+00d  [operations_research::sat::CpModelPresolver::PresolveToFixPoint] #num_loops=1 #num_dual_strengthening=1 
  8.90e-05s  0.00e+00d  [operations_research::sat::CpModelPresolver::ProcessAtMostOneAndLinear] 
  1.54e-04s  0.00e+00d  [operations_research::sat::CpModelPresolver::DetectDuplicateConstraints] 
  1.61e-04s  0.00e+00d  [operations_research::sat::CpModelPresolver::DetectDuplicateConstraintsWithDifferentEnforcements] 
  8.94e-05s  1.80e-06d  [operations_research::sat::CpModelPresolver::DetectDominatedLinearConstraints] #relevant_constraints=299 
  6.63e-05s  0.00e+00d  [operations_research::sat::CpModelPresolver::DetectDifferentVariables] 
  5.70e-06s  0.00e+00d  [operations_research::sat::CpModelPresolver::ProcessSetPPC] 
  8.30e-06s  0.00e+00d  [operations_research::sat::CpModelPresolver::FindAlmostIdenticalLinearConstraints] 
  3.46e-05s  0.00e+00d  [operations_research::sat::CpModelPresolver::FindBigAtMostOneAndLinearOverlap] 
  6.88e-05s  1.06e-05d  [operations_research::sat::CpModelPresolver::FindBigVerticalLinearOverlap] 
  1.24e-05s  0.00e+00d  [operations_research::sat::CpModelPresolver::FindBigHorizontalLinearOverlap] 
  9.50e-06s  0.00e+00d  [operations_research::sat::CpModelPresolver::MergeClauses] 
  1.50e-04s  0.00e+00d  [DetectDominanceRelations] 
  9.32e-04s  0.00e+00d  [operations_research::sat::CpModelPresolver::PresolveToFixPoint] #num_loops=1 #num_dual_strengthening=1 
  1.38e-04s  0.00e+00d  [DetectDominanceRelations] 
  8.50e-04s  0.00e+00d  [operations_research::sat::CpModelPresolver::PresolveToFixPoint] #num_loops=1 #num_dual_strengthening=1 
  3.34e-05s  0.00e+00d  [operations_research::sat::CpModelPresolver::DetectDuplicateColumns] 
  1.52e-04s  0.00e+00d  [operations_research::sat::CpModelPresolver::DetectDuplicateConstraints] 
[Symmetry] Graph for symmetry has 1'383 nodes and 1'339 arcs.
[Symmetry] Symmetry computation done. time: 0.0001533 dtime: 0.00022
  1.54e-04s  0.00e+00d  [operations_research::sat::CpModelPresolver::DetectDuplicateConstraintsWithDifferentEnforcements] 
  1.12e-03s  2.31e-06d  [operations_research::sat::CpModelPresolver::Probe] 
  6.80e-06s  0.00e+00d  [MaxClique] 
  1.41e-04s  0.00e+00d  [DetectDominanceRelations] 
  8.42e-04s  0.00e+00d  [operations_research::sat::CpModelPresolver::PresolveToFixPoint] #num_loops=1 #num_dual_strengthening=1 
  8.70e-05s  0.00e+00d  [operations_research::sat::CpModelPresolver::ProcessAtMostOneAndLinear] 
  1.51e-04s  0.00e+00d  [operations_research::sat::CpModelPresolver::DetectDuplicateConstraints] 
  1.54e-04s  0.00e+00d  [operations_research::sat::CpModelPresolver::DetectDuplicateConstraintsWithDifferentEnforcements] 
  8.11e-05s  1.80e-06d  [operations_research::sat::CpModelPresolver::DetectDominatedLinearConstraints] #relevant_constraints=299 
  6.48e-05s  0.00e+00d  [operations_research::sat::CpModelPresolver::DetectDifferentVariables] 
  5.40e-06s  0.00e+00d  [operations_research::sat::CpModelPresolver::ProcessSetPPC] 
  8.80e-06s  0.00e+00d  [operations_research::sat::CpModelPresolver::FindAlmostIdenticalLinearConstraints] 
  2.18e-05s  0.00e+00d  [operations_research::sat::CpModelPresolver::FindBigAtMostOneAndLinearOverlap] 
  6.33e-05s  1.06e-05d  [operations_research::sat::CpModelPresolver::FindBigVerticalLinearOverlap] 
  2.89e-05s  0.00e+00d  [operations_research::sat::CpModelPresolver::FindBigHorizontalLinearOverlap] 
  9.40e-06s  0.00e+00d  [operations_research::sat::CpModelPresolver::MergeClauses] 
  1.40e-04s  0.00e+00d  [DetectDominanceRelations] 
  8.43e-04s  0.00e+00d  [operations_research::sat::CpModelPresolver::PresolveToFixPoint] #num_loops=1 #num_dual_strengthening=1 
  3.16e-05s  0.00e+00d  [operations_research::sat::CpModelPresolver::ExpandObjective] 

Presolve summary:
  - 247 affine relations were detected.
  - rule 'TODO dual: only one blocking constraint?' was applied 540 times.
  - rule 'TODO dual: only one unspecified blocking constraint?' was applied 504 times.
  - rule 'affine: new relation' was applied 247 times.
  - rule 'intervals: removed unused interval' was applied 1 time.
  - rule 'lin_max: converted to equality' was applied 2 times.
  - rule 'lin_max: removed exprs' was applied 2 times.
  - rule 'lin_max: rewrite with precedences' was applied 84 times.
  - rule 'lin_max: target domain reduced' was applied 86 times.
  - rule 'linear1: x in domain' was applied 11 times.
  - rule 'linear: always true' was applied 107 times.
  - rule 'linear: fixed or dup variables' was applied 2 times.
  - rule 'linear: reduced variable domains' was applied 1'289 times.
  - rule 'linear: remapped using affine relations' was applied 526 times.
  - rule 'no_overlap: split into disjoint components' was applied 1 time.
  - rule 'objective: variable not used elsewhere' was applied 2 times.
  - rule 'presolve: 2 unused variables removed.' was applied 1 time.
  - rule 'presolve: iteration' was applied 2 times.

Presolved optimization model '': (model_fingerprint: 0x22d3665d96decd91)
#Variables: 331 (#ints: 84 in objective) (247 primary variables)
  - 211 different domains in [0,18102] with a largest complexity of 1.
#kInterval: 247
#kLinear2: 299
#kNoOverlap: 10 (#intervals: 247)
[Symmetry] Graph for symmetry has 1'134 nodes and 1'339 arcs.
[Symmetry] Symmetry computation done. time: 0.0001506 dtime: 0.00020506

Preloading model.
#Bound   0.02s best:inf   next:[0,1373652] initial_domain
#Model   0.02s var:331/331 constraints:556/556

Starting search at 0.02s with 20 workers.
13 full problem subsolvers: [core, default_lp, fixed, lb_tree_search, max_lp, no_lp, objective_lb_search, objective_shaving_no_lp, probing, pseudo_costs, quick_restart, quick_restart_no_lp, reduced_costs]
7 first solution subsolvers: [fj(2), fj_lin, fs_random, fs_random_no_lp, fs_random_quick_restart, fs_random_quick_restart_no_lp]
17 interleaved subsolvers: [feasibility_pump, graph_arc_lns, graph_cst_lns, graph_dec_lns, graph_var_lns, lb_relax_lns, ls(2), ls_lin, rins/rens, rnd_cst_lns, rnd_var_lns, scheduling_intervals_lns, scheduling_precedences_lns, scheduling_resource_windows_lns, scheduling_time_window_lns, variables_shaving]
3 helper subsolvers: [neighborhood_helper, synchronization_agent, update_gap_integral]

#1       0.04s best:33056 next:[0,33055]  no_lp
#2       0.05s best:320   next:[0,319]    core
#3       0.09s best:319   next:[0,318]    fixed
#Bound   0.12s best:319   next:[4,318]    objective_lb_search
#Bound   0.12s best:319   next:[8,318]    objective_lb_search
#Bound   0.12s best:319   next:[9,318]    objective_lb_search
#Bound   0.12s best:319   next:[10,318]   objective_lb_search
#4       0.14s best:281   next:[10,280]   ls_restart_decay(batch:1 lin{mvs:3 evals:33} gen{mvs:7 evals:8} #w_updates:2 #perturb:0)
#5       0.14s best:275   next:[10,274]   ls_restart_perturb(batch:1 lin{mvs:3 evals:26} gen{mvs:5 evals:6} #w_updates:1 #perturb:0)
#6       0.14s best:273   next:[10,272]   ls_lin_restart_decay_compound_perturb(batch:1 lin{mvs:0 evals:12} gen{mvs:3 evals:1} comp{mvs:3 btracks:0} #w_updates:0 #perturb:0)
#Bound   0.15s best:273   next:[11,272]   bool_core (num_cores=1 [cover] a=83 d=2 fixed=11/373 clauses=178)
#Bound   0.15s best:273   next:[12,272]   bool_core (num_cores=1 [cover] a=83 d=2 fixed=12/380 clauses=211)
#Bound   0.15s best:273   next:[13,272]   bool_core (num_cores=1 [cover] a=83 d=2 fixed=13/387 clauses=247)
#Bound   0.15s best:273   next:[14,272]   bool_core (num_cores=1 [cover] a=83 d=2 fixed=14/394 clauses=286)
#Bound   0.15s best:273   next:[15,272]   bool_core (num_cores=1 [cover] a=83 d=2 fixed=15/401 clauses=328)
#Bound   0.15s best:273   next:[16,272]   bool_core (num_cores=1 [cover] a=83 d=2 fixed=16/408 clauses=373)
#Bound   0.15s best:273   next:[17,272]   bool_core (num_cores=1 [cover] a=83 d=2 fixed=17/415 clauses=421)
#Bound   0.15s best:273   next:[18,272]   bool_core (num_cores=1 [cover] a=83 d=2 fixed=18/422 clauses=472)
#Bound   0.15s best:273   next:[19,272]   bool_core (num_cores=1 [cover] a=83 d=2 fixed=19/429 clauses=526)
#Bound   0.15s best:273   next:[20,272]   bool_core (num_cores=1 [cover] a=83 d=2 fixed=20/436 clauses=583)
#Bound   0.15s best:273   next:[21,272]   bool_core (num_cores=1 [cover] a=83 d=2 fixed=21/443 clauses=643)
#Bound   0.15s best:273   next:[22,272]   bool_core (num_cores=1 [cover] a=83 d=2 fixed=22/450 clauses=706)
#7       0.18s best:272   next:[22,271]   quick_restart_no_lp
#8       0.18s best:61    next:[22,60]    objective_lb_search
#9       0.18s best:22    next:[]         lb_relax_lns_int (d=5.00e-01 s=27 t=0.50 p=0.00 stall=0 h=base)
#Done    0.18s objective_lb_search

Task timing                                  n [     min,      max]      avg      dev     time         n [     min,      max]      avg      dev    dtime
                             'core':         1 [168.17ms, 168.17ms] 168.17ms   0.00ns 168.17ms         1 [  6.21ms,   6.21ms]   6.21ms   0.00ns   6.21ms
                       'default_lp':         1 [168.63ms, 168.63ms] 168.63ms   0.00ns 168.63ms         1 [ 21.88ms,  21.88ms]  21.88ms   0.00ns  21.88ms
                 'feasibility_pump':         1 [  6.90ms,   6.90ms]   6.90ms   0.00ns   6.90ms         0 [  0.00ns,   0.00ns]   0.00ns   0.00ns   0.00ns
                            'fixed':         1 [161.95ms, 161.95ms] 161.95ms   0.00ns 161.95ms         0 [  0.00ns,   0.00ns]   0.00ns   0.00ns   0.00ns
                               'fj':         1 [ 92.02ms,  92.02ms]  92.02ms   0.00ns  92.02ms         1 [ 82.82ms,  82.82ms]  82.82ms   0.00ns  82.82ms
                               'fj':         1 [104.45ms, 104.45ms] 104.45ms   0.00ns 104.45ms         1 [100.19ms, 100.19ms] 100.19ms   0.00ns 100.19ms
                           'fj_lin':         0 [  0.00ns,   0.00ns]   0.00ns   0.00ns   0.00ns         0 [  0.00ns,   0.00ns]   0.00ns   0.00ns   0.00ns
                        'fs_random':         1 [ 12.04ms,  12.04ms]  12.04ms   0.00ns  12.04ms         1 [153.00us, 153.00us] 153.00us   0.00ns 153.00us
                  'fs_random_no_lp':         1 [ 12.29ms,  12.29ms]  12.29ms   0.00ns  12.29ms         1 [433.12us, 433.12us] 433.12us   0.00ns 433.12us
          'fs_random_quick_restart':         1 [ 11.28ms,  11.28ms]  11.28ms   0.00ns  11.28ms         1 [227.10us, 227.10us] 227.10us   0.00ns 227.10us
    'fs_random_quick_restart_no_lp':         1 [ 11.65ms,  11.65ms]  11.65ms   0.00ns  11.65ms         1 [474.47us, 474.47us] 474.47us   0.00ns 474.47us
                    'graph_arc_lns':         1 [148.63ms, 148.63ms] 148.63ms   0.00ns 148.63ms         1 [  6.61ms,   6.61ms]   6.61ms   0.00ns   6.61ms
                    'graph_cst_lns':         1 [ 10.09ms,  10.09ms]  10.09ms   0.00ns  10.09ms         1 [ 88.19us,  88.19us]  88.19us   0.00ns  88.19us
                    'graph_dec_lns':         1 [  6.13ms,   6.13ms]   6.13ms   0.00ns   6.13ms         1 [ 16.44us,  16.44us]  16.44us   0.00ns  16.44us
                    'graph_var_lns':         1 [149.05ms, 149.05ms] 149.05ms   0.00ns 149.05ms         1 [  6.42ms,   6.42ms]   6.42ms   0.00ns   6.42ms
                     'lb_relax_lns':         1 [120.04ms, 120.04ms] 120.04ms   0.00ns 120.04ms         1 [  4.86ms,   4.86ms]   4.86ms   0.00ns   4.86ms
                   'lb_tree_search':         1 [166.54ms, 166.54ms] 166.54ms   0.00ns 166.54ms         0 [  0.00ns,   0.00ns]   0.00ns   0.00ns   0.00ns
                               'ls':         1 [  2.07ms,   2.07ms]   2.07ms   0.00ns   2.07ms         1 [ 75.52us,  75.52us]  75.52us   0.00ns  75.52us
                               'ls':         1 [  2.18ms,   2.18ms]   2.18ms   0.00ns   2.18ms         1 [ 84.69us,  84.69us]  84.69us   0.00ns  84.69us
                           'ls_lin':         1 [  2.15ms,   2.15ms]   2.15ms   0.00ns   2.15ms         1 [ 19.18us,  19.18us]  19.18us   0.00ns  19.18us
                           'max_lp':         1 [167.21ms, 167.21ms] 167.21ms   0.00ns 167.21ms         1 [ 10.42ms,  10.42ms]  10.42ms   0.00ns  10.42ms
                            'no_lp':         1 [161.48ms, 161.48ms] 161.48ms   0.00ns 161.48ms         0 [  0.00ns,   0.00ns]   0.00ns   0.00ns   0.00ns
              'objective_lb_search':         1 [159.10ms, 159.10ms] 159.10ms   0.00ns 159.10ms         1 [ 16.31ms,  16.31ms]  16.31ms   0.00ns  16.31ms
          'objective_shaving_no_lp':         2 [ 20.85ms,  21.90ms]  21.37ms 524.10us  42.74ms         2 [ 74.43us, 134.55us] 104.49us  30.06us 208.98us
                          'probing':         1 [166.22ms, 166.22ms] 166.22ms   0.00ns 166.22ms         0 [  0.00ns,   0.00ns]   0.00ns   0.00ns   0.00ns
                     'pseudo_costs':         1 [166.04ms, 166.04ms] 166.04ms   0.00ns 166.04ms         1 [ 17.59ms,  17.59ms]  17.59ms   0.00ns  17.59ms
                    'quick_restart':         1 [166.88ms, 166.88ms] 166.88ms   0.00ns 166.88ms         1 [ 16.65ms,  16.65ms]  16.65ms   0.00ns  16.65ms
              'quick_restart_no_lp':         1 [160.28ms, 160.28ms] 160.28ms   0.00ns 160.28ms         0 [  0.00ns,   0.00ns]   0.00ns   0.00ns   0.00ns
                    'reduced_costs':         1 [167.48ms, 167.48ms] 167.48ms   0.00ns 167.48ms         0 [  0.00ns,   0.00ns]   0.00ns   0.00ns   0.00ns
                        'rins/rens':         1 [714.40us, 714.40us] 714.40us   0.00ns 714.40us         0 [  0.00ns,   0.00ns]   0.00ns   0.00ns   0.00ns
                      'rnd_cst_lns':         1 [ 41.32ms,  41.32ms]  41.32ms   0.00ns  41.32ms         1 [754.65us, 754.65us] 754.65us   0.00ns 754.65us
                      'rnd_var_lns':         1 [ 41.57ms,  41.57ms]  41.57ms   0.00ns  41.57ms         1 [  3.88ms,   3.88ms]   3.88ms   0.00ns   3.88ms
         'scheduling_intervals_lns':         1 [107.86ms, 107.86ms] 107.86ms   0.00ns 107.86ms         1 [502.14us, 502.14us] 502.14us   0.00ns 502.14us
       'scheduling_precedences_lns':         1 [ 61.71ms,  61.71ms]  61.71ms   0.00ns  61.71ms         1 [726.72us, 726.72us] 726.72us   0.00ns 726.72us
  'scheduling_resource_windows_lns':         1 [ 83.61ms,  83.61ms]  83.61ms   0.00ns  83.61ms         1 [  4.15ms,   4.15ms]   4.15ms   0.00ns   4.15ms
       'scheduling_time_window_lns':         1 [107.76ms, 107.76ms] 107.76ms   0.00ns 107.76ms         1 [961.97us, 961.97us] 961.97us   0.00ns 961.97us
                'variables_shaving':         2 [ 30.24ms,  78.93ms]  54.58ms  24.35ms 109.17ms         2 [414.56us,   2.72ms]   1.57ms   1.15ms   3.14ms

Search stats                        Bools  Conflicts  Branches  Restarts  BoolPropag  IntegerPropag
                           'core':    457         40     3'199     1'036       3'583         35'781
                     'default_lp':    491        104     1'295       381       5'400        177'986
                          'fixed':    589         21     1'551       491       3'969        100'218
                      'fs_random':      8          0         8         0           0            346
                'fs_random_no_lp':     96          0        96         0           0          3'317
        'fs_random_quick_restart':     12          0        12         0           0            636
  'fs_random_quick_restart_no_lp':    123          0       123         0           0          3'560
                 'lb_tree_search':  2'948          0     2'584     2'584           0         18'681
                         'max_lp':    265          5       590       236         289         21'959
                          'no_lp':    531        113     1'696       401       3'016        106'974
            'objective_lb_search':    661         80     1'436       394       4'541        127'020
                        'probing':  2'948          0     2'776     2'776           0         20'178
                   'pseudo_costs':    293         32       563        95         276         36'315
                  'quick_restart':    470         41     1'330       369       3'723        130'618
            'quick_restart_no_lp':  1'033          5     2'643       485       7'884        140'081
                  'reduced_costs':  2'948          0     2'628     2'628           0         18'998

SAT stats                           ClassicMinim  LitRemoved  LitLearned  LitForgotten  Subsumed  MClauses  MDecisions  MLitTrue  MSubsumed  MLitRemoved  MReused
                           'core':            17         110         753             0         0         0           0         0          0            0        0
                     'default_lp':            70          90       1'503             0         0         0           0         0          0            0        0
                          'fixed':             0           0          61             0         0        38           2         0          0            0       74
                      'fs_random':             0           0           0             0         0         0           0         0          0            0        0
                'fs_random_no_lp':             0           0           0             0         0         0           0         0          0            0        0
        'fs_random_quick_restart':             0           0           0             0         0         0           0         0          0            0        0
  'fs_random_quick_restart_no_lp':             0           0           0             0         0         0           0         0          0            0        0
                 'lb_tree_search':             0           0           0             0         0         0           0         0          0            0        0
                         'max_lp':             0           0          19             0         0         0           0         0          0            0        0
                          'no_lp':            99         346       8'168             0         0         0           0         0          0            0        0
            'objective_lb_search':            40          89         919             0         0         0           0         0          0            0        0
                        'probing':             0           0           0             0         0         0           0         0          0            0        0
                   'pseudo_costs':             6          15         526             0         0         0           0         0          0            0        0
                  'quick_restart':            14          29         655             0         0         0           0         0          0            0        0
            'quick_restart_no_lp':             0           0           5             0         0         0           0         0          0            0        0
                  'reduced_costs':             0           0           0             0         0         0           0         0          0            0        0

Lp stats                      Component  Iterations  AddedCuts  OPTIMAL  DUAL_F.  DUAL_U.
               'default_lp':         32         673          0    1'556        0        0
                    'fixed':         32         812          0    1'445        0        0
                'fs_random':         32         141          0      286        0        0
  'fs_random_quick_restart':         32         161          0      330        0        0
           'lb_tree_search':          1           0          0        0        0        0
                   'max_lp':          1         584        324      175        1        0
      'objective_lb_search':         32         819          0    1'864        0        0
                  'probing':         32           0          0        0        0        0
             'pseudo_costs':          1         786        666      251       10        0
            'quick_restart':         32         820          0    1'795        1        0
            'reduced_costs':          1           0          0        0        0        0

Lp dimension                   Final dimension of first component
               'default_lp':         1 rows, 9 columns, 2 entries
                    'fixed':         1 rows, 9 columns, 2 entries
                'fs_random':         1 rows, 9 columns, 2 entries
  'fs_random_quick_restart':         1 rows, 9 columns, 2 entries
           'lb_tree_search':   299 rows, 331 columns, 598 entries
                   'max_lp':  275 rows, 331 columns, 1115 entries
      'objective_lb_search':         1 rows, 9 columns, 2 entries
                  'probing':         0 rows, 9 columns, 0 entries
             'pseudo_costs':  264 rows, 331 columns, 1230 entries
            'quick_restart':         1 rows, 9 columns, 2 entries
            'reduced_costs':       0 rows, 331 columns, 0 entries

Lp debug                      CutPropag  CutEqPropag  Adjust  Overflow    Bad  BadScaling
               'default_lp':          0            0       0         0      0           0
                    'fixed':          0            0       0         0      0           0
                'fs_random':          0            0       0         0      0           0
  'fs_random_quick_restart':          0            0       0         0      0           0
           'lb_tree_search':          0            0       0         0      0           0
                   'max_lp':          0            0       0         0  1'759           0
      'objective_lb_search':          0            0       0         0      0           0
                  'probing':          0            0       0         0      0           0
             'pseudo_costs':          0            0       0         0    270           0
            'quick_restart':          0            0       0         0      0           0
            'reduced_costs':          0            0       0         0      0           0

Lp pool                       Constraints  Updates  Simplif  Merged  Shortened  Split  Strenghtened  Cuts/Call
               'default_lp':          299        0        0       0          0      0             0        0/0
                    'fixed':          299        0        0       0          0      0             0        0/0
                'fs_random':          299        0        0       0          0      0             0        0/0
  'fs_random_quick_restart':          299        0        0       0          0      0             0        0/0
           'lb_tree_search':          299        0        0       0          0      0             0        0/0
                   'max_lp':          603      301        5      20          0      0             0    324/406
      'objective_lb_search':          299        0        0       0          0      0             0        0/0
                  'probing':          299        0        0       0          0      0             0        0/0
             'pseudo_costs':          919      103      538      46          0      0             0    666/933
            'quick_restart':          299        0        0       0          0      0             0        0/0
            'reduced_costs':          299        0        0       0          0      0             0        0/0

Lp Cut                                                max_lp  pseudo_costs
                                               CG_R:       4             6
                                            MIR_1_K:       -             5
                                            MIR_1_R:       3            10
                                            MIR_2_R:       -             4
                  NoOverlapCompletionTimeExhaustive:       8             8
           NoOverlapCompletionTimeExhaustive_lifted:       8            28
  NoOverlapCompletionTimeExhaustive_lifted_weighted:      31            79
         NoOverlapCompletionTimeExhaustive_weighted:      29            33
                    NoOverlapCompletionTimeQueyrane:      56           107
             NoOverlapCompletionTimeQueyrane_lifted:      75           172
                        NoOverlapDetectedPrecedence:       2             7
                          NoOverlapDisjunctionOnEnd:       1             -
                        NoOverlapDisjunctionOnStart:     103           202
                                        ZERO_HALF_R:       4             5

LNS stats                             Improv/Calls  Closed  Difficulty  TimeLimit
                    'graph_arc_lns':           1/1      0%    2.93e-01       0.10
                    'graph_cst_lns':           0/1    100%    7.07e-01       0.10
                    'graph_dec_lns':           1/1    100%    7.07e-01       0.10
                    'graph_var_lns':           1/1      0%    2.93e-01       0.10
                     'lb_relax_lns':           1/1    100%    7.07e-01       0.50
                        'rins/rens':           1/1    100%    7.07e-01       0.10
                      'rnd_cst_lns':           1/1    100%    7.07e-01       0.10
                      'rnd_var_lns':           1/1    100%    7.07e-01       0.10
         'scheduling_intervals_lns':           1/1      0%    2.93e-01       0.10
       'scheduling_precedences_lns':           1/1      0%    2.93e-01       0.10
  'scheduling_resource_windows_lns':           1/1      0%    2.93e-01       0.10
       'scheduling_time_window_lns':           1/1      0%    2.93e-01       0.10

LS stats                                    Batches  Restarts/Perturbs  LinMoves  GenMoves  CompoundMoves  Bactracks  WeightUpdates  ScoreComputed
                             'fj_restart':        1                  1        52     1'065              0          0             14        214'117
  'fj_restart_decay_compound_perturb_obj':        1                  1         0     2'881          1'077        902              7        170'988
  'ls_lin_restart_decay_compound_perturb':        1                  1         0         3              3          0              0             50
                       'ls_restart_decay':        1                  1         3         7              0          0              2            189
                     'ls_restart_perturb':        1                  1         3         5              0          0              1            168

Solutions (9)                               Num   Rank
                                   'core':    1  [2,2]
                                  'fixed':    1  [3,3]
                       'lb_relax_lns_int':    1  [9,9]
  'ls_lin_restart_decay_compound_perturb':    1  [6,6]
                       'ls_restart_decay':    1  [4,4]
                     'ls_restart_perturb':    1  [5,5]
                                  'no_lp':    1  [1,1]
                    'objective_lb_search':    1  [8,8]
                    'quick_restart_no_lp':    1  [7,7]

Objective bounds          Num
            'bool_core':   12
       'initial_domain':    1
  'objective_lb_search':    4

Solution repositories    Added  Queried  Synchro
  'feasible solutions':     29       27       18
   'fj solution hints':      0        0        0
        'lp solutions':      5        1        3
                'pump':      0        0

Improving bounds shared    Num  Sym
            'default_lp':  656    0
                 'fixed':  179    0
                 'no_lp':  279    0
   'objective_lb_search':  330    0
         'quick_restart':  320    0
   'quick_restart_no_lp':  185    0

CpSolverResponse summary:
status: OPTIMAL
objective: 22
best_bound: 22
integers: 332
booleans: 96
conflicts: 0
branches: 96
propagations: 0
integer_propagations: 3317
restarts: 0
lp_iterations: 0
walltime: 0.210716
usertime: 0.210716
deterministic_time: 0.30586
gap_integral: 1.23489
solution_fingerprint: 0xdf3004286606030b

